CMD:
./solvers/bin/cadical --plain --no-reduce -t 1600 ./data/cnfs//qspiflash_dualflexpress_divthree-p012/qspiflash_dualflexpress_divthree-p012.26.cnf

c --- [ banner ] -------------------------------------------------------------
c 
c CaDiCaL SAT Solver
c Copyright (c) 2016-2024
c A. Biere, M. Fleury, N. Froleyks, K. Fazekas, F. Pollitt, T. Faller
c JKU Linz, University of Freiburg, TU Wien
c 
c Version 2.1.3 5296d3d2a9bf48c154ab2acb5e44625776d821bf
c g++ (Gentoo 12.3.1_p20230526 p2) 12.3.1 20230526 -Wall -Wextra -O3 -DNDEBUG
c Sat Aug 9 07:26:21 PDT 2025 Linux cedar2.int.cedar.computecanada.ca 5.14.0-362.24.2.el9_3.x86_64 x86_64
c 
c --- [ limit ] --------------------------------------------------------------
c 
c setting time limit to 1600 seconds real time (due to '-t 1600')
c 
c --- [ parsing input ] ------------------------------------------------------
c 
c reading DIMACS file from './data/cnfs//qspiflash_dualflexpress_divthree-p012/qspiflash_dualflexpress_divthree-p012.26.cnf'
c opening file to read './data/cnfs//qspiflash_dualflexpress_divthree-p012/qspiflash_dualflexpress_divthree-p012.26.cnf'
c found 'p cnf 80037 232727' header
c parsed 232727 clauses in 0.03 seconds process time
c 
c --- [ options ] ------------------------------------------------------------
c 
c   --compact=false                (different from default 'true')
c   --decompose=false              (different from default 'true')
c   --deduplicate=false            (different from default 'true')
c   --elim=false                   (different from default 'true')
c   --probe=false                  (different from default 'true')
c   --reduce=false                 (different from default 'true')
c   --subsume=false                (different from default 'true')
c   --ternary=false                (different from default 'true')
c   --transred=false               (different from default 'true')
c   --vivify=false                 (different from default 'true')
c 
c --- [ solving ] ------------------------------------------------------------
c 
c time measured in process time since initialization
c 
c  seconds  reductions  redundant  irredundant
c         MB    restarts       trail       variables
c          level   conflicts       glue         remaining
c 
c *  0.04 38  0 0   0    0    0  0% 0 214944 68246 85%
c {  0.05 39  0 0   0    0    0  0% 0 214944 68246 85%
c i  0.06 39  0 0   0    1    0 29% 0 214944 68231 85%
c i  0.06 39 82 0   0   33   31 28% 4 214944 68159 85%
c i  0.06 40 67 0   3   44   41 26% 4 214944 68155 85%
c i  0.06 40 61 0   3   50   44 25% 4 214944 68151 85%
c i  0.06 40 52 0   3   65   57 26% 4 214944 68139 85%
c i  0.07 40 50 0   3   80   69 27% 3 214944 68136 85%
c i  0.08 40 35 0  14  261  228 29% 3 214944 68073 85%
c i  0.08 40 35 0  14  267  232 28% 3 214944 68049 85%
c i  0.08 40 34 0  14  323  285 28% 3 214944 67990 85%
c i  0.08 40 31 0  14  418  371 26% 3 214944 67957 85%
c i  0.08 40 31 0  14  423  374 26% 3 214944 67934 85%
c i  0.08 40 31 0  14  429  379 26% 3 214944 67924 85%
c i  0.08 40 31 0  14  432  381 26% 3 214944 67911 85%
c i  0.08 40 30 0  14  441  387 26% 3 214944 67896 85%
c i  0.08 40 30 0  14  442  387 26% 3 214944 67878 85%
c i  0.08 40 30 0  14  445  389 26% 3 214944 67860 85%
c i  0.08 40 30 0  14  458  401 25% 3 214944 67842 85%
c i  0.09 40 29 0  14  492  432 25% 3 214944 67832 85%
c 
c  seconds  reductions  redundant  irredundant
c         MB    restarts       trail       variables
c          level   conflicts       glue         remaining
c 
c i  0.09 40 31 0  17  589  514 26% 3 214944 67791 85%
c i  0.10 40 32 0  39  679  602 26% 3 214944 67770 85%
c i  0.12 40 32 0  65  896  806 27% 3 214944 67768 85%
c i  0.12 40 32 0  65  897  806 27% 3 214944 67766 85%
c i  0.12 40 32 0  65  898  806 27% 3 214944 67764 85%
c i  0.12 40 32 0  66  901  808 27% 3 214944 67755 85%
c }  0.13 40 31 0  83 1001  897 26% 3 214944 67738 85%
c [  0.13 40  0 0  83 1001  897  0% 0 214944 67738 85%
c O  0.14 40 764 0  83 1002  898 94% 2 214944 67738 85%
c i  0.14 40 739 0  83 1032  926 92% 4 214944 67663 85%
c i  0.14 40 732 0  83 1051  943 91% 5 214944 67650 85%
c i  0.15 40 728 0  83 1067  958 90% 5 214944 67576 84%
c i  0.23 40 622 0  84 2106 1920 77% 9 214944 67562 84%
c i  0.25 40 546 0  84 2271 2073 71% 9 214944 67543 84%
c ]  0.31 41 361 0  84 3001 2736 58% 11 214944 67543 84%
c {  0.31 41 31 0  84 3001 2736 26% 3 214944 67543 84%
c F  0.32 41 31 0  85 3008 2742 26% 3 214944 67539 84%
c i  0.32 41 31 0  98 3060 2789 26% 3 214944 67538 84%
c i  0.35 41 29 0 158 3296 2990 26% 3 214944 67534 84%
c i  0.36 41 29 0 165 3331 3022 26% 3 214944 67530 84%
c 
c  seconds  reductions  redundant  irredundant
c         MB    restarts       trail       variables
c          level   conflicts       glue         remaining
c 
c i  0.38 41 27 0 199 3490 3172 26% 4 214944 67526 84%
c i  0.38 41 27 0 200 3493 3174 26% 4 214944 67482 84%
c i  0.39 41 27 0 207 3524 3199 25% 4 214944 67478 84%
c i  0.40 41 27 0 228 3650 3310 25% 4 214944 67464 84%
c i  0.40 41 27 0 234 3670 3328 25% 4 214944 67462 84%
c i  0.41 41 27 0 236 3677 3333 25% 4 214944 67457 84%
c i  0.42 41 25 0 277 3849 3464 26% 4 214944 67417 84%
c i  0.42 41 25 0 277 3850 3464 26% 4 214944 67410 84%
c i  0.44 41 25 0 302 3960 3561 26% 4 214944 67398 84%
c i  0.47 41 25 0 313 4107 3689 26% 4 214944 67394 84%
c i  0.49 41 24 0 344 4284 3833 26% 4 214944 67391 84%
c i  0.50 41 24 0 344 4332 3877 26% 4 214944 67389 84%
c i  0.50 41 24 0 344 4361 3899 26% 4 214944 67380 84%
c i  0.50 41 23 0 344 4424 3953 26% 4 214944 67379 84%
c i  0.51 41 23 0 357 4503 4026 26% 4 214944 67243 84%
c i  0.52 41 23 0 367 4577 4087 26% 4 214944 67190 84%
c i  0.52 41 23 0 368 4582 4091 26% 4 214944 66973 84%
c i  0.54 41 23 0 385 4716 4206 26% 4 214944 66965 84%
c i  0.55 41 23 0 385 4774 4258 26% 4 214944 66921 84%
c i  0.55 41 23 0 386 4775 4258 26% 4 214944 66875 84%
c 
c  seconds  reductions  redundant  irredundant
c         MB    restarts       trail       variables
c          level   conflicts       glue         remaining
c 
c i  0.58 41 23 0 427 4977 4436 27% 4 214944 66857 84%
c i  0.58 41 23 0 427 4980 4437 27% 4 214944 66818 83%
c i  0.65 41 23 0 526 5385 4808 27% 5 214944 66814 83%
c i  0.74 41 23 0 650 5978 5357 27% 5 214944 66774 83%
c #  0.75 41 23 0 650 6009 5385 27% 5 214944 66774 83%
c i  0.75 41 23 0 650 6013 5387 27% 5 214944 66731 83%
c i  0.76 41 24 0 658 6169 5523 28% 5 214944 66725 83%
c i  0.80 41 24 0 704 6374 5712 28% 5 214944 66717 83%
c i  0.82 41 24 0 719 6594 5912 28% 5 214944 66479 83%
c i  0.87 41 23 0 755 6893 6178 28% 5 214944 66471 83%
c }  0.89 42 23 0 783 7001 6282 28% 5 214944 66471 83%
c [  0.89 42 361 0 783 7001 6282 58% 11 214944 66471 83%
c i  0.91 42 338 0 784 7147 6401 57% 10 214944 66201 83%
c i  1.13 42 175 0 785 9269 8148 45% 9 214944 66199 83%
c i  1.13 42 174 0 785 9298 8173 45% 9 214944 66197 83%
c i  1.17 42 160 0 785 9682 8427 44% 9 214944 66195 83%
c i  1.17 42 160 0 785 9704 8433 44% 9 214944 52450 66%
c i  1.17 42 159 0 785 9721 8445 44% 9 214944 52360 65%
c i  1.17 42 159 0 785 9723 8446 44% 9 214944 52335 65%
c ]  1.17 42 159 0 785 9730 8446 44% 9 214944 52102 65%
c 
c  seconds   reductions  redundant  irredundant
c         MB     restarts       trail       variables
c           level   conflicts       glue         remaining
c 
c 0  1.17 42 159 0 785 9730 8446 44% 9 214944 52102 65%
c 
c --- [ result ] -------------------------------------------------------------
c 
s UNSATISFIABLE
c 
c --- [ run-time profiling ] -------------------------------------------------
c 
c process time taken by individual solving procedures
c (percentage relative to process time for solving)
c 
c         1.13   99.99% search
c         0.65   57.71% unstable
c         0.46   40.61% stable
c         0.03    3.08% parse
c         0.02    1.67% lucky
c         0.00    0.00% simplify
c   =================================
c         1.13   96.97% solve
c 
c last line shows process time for solving
c (percentage relative to total process time)
c 
c --- [ statistics ] ---------------------------------------------------------
c 
c chronological:              3339        34.32 %  of conflicts
c conflicts:                  9730      8575.78    per second
c decisions:                 33043     29123.27    per second
c fixed:                     27901        34.86 %  of all variables
c learned:                    9355        96.15 %  per conflict
c learned_lits:             334701       100.00 %  learned literals
c minimized:                     0         0.00 %  learned literals
c shrunken:                  72216        21.58 %  learned literals
c minishrunken:              65432        19.55 %  learned literals
c otfs:                         94         0.97 %  of conflict
c propagations:           19367088        17.07 M  per second
c rephased:                      3      3243.33    interval
c restarts:                    785        12.39    interval
c stabilizing:                   2        48.60 %  of conflicts
c subsumed:                    838         0.37 %  of all clauses
c strengthened:                 94         0.04 %  of all clauses
c 
c seconds are measured in process time for solving
c 
c --- [ resources ] ----------------------------------------------------------
c 
c total process time since initialization:         1.17    seconds
c total real time since initialization:            1.18    seconds
c maximum resident set size of process:           40.10    MB
c 
c --- [ shutting down ] ------------------------------------------------------
c 
c exit 20
